2
Coordinates from ORCA-job d2 E  -1.168759928203
  H       0.000000      0.000000     -0.370700
  H       0.000000      0.000000      0.370700
2
Coordinates from ORCA-job d2 E  -1.168761101830
  H       0.000000      0.000000     -0.371891
  H       0.000000      0.000000      0.371891
2
Coordinates from ORCA-job d2 E  -1.168761563450
  H       0.000000      0.000000     -0.371481
  H       0.000000      0.000000      0.371481
2
Coordinates from ORCA-job d2 E  -1.168761563472
  H       0.000000      0.000000     -0.371478
  H       0.000000      0.000000      0.371478
